Creating DSP environment
Reading SMPS files: /blues/gpfs/home/choy/Siplib/experiment/FULL_INSTANCE/AIRLIFT/LP2/AIRLIFT_300_LP2
Coin0001I At line 1 NAME          AIRLIFT_300_LP2
Coin0001I At line 2 ROWS
Coin0001I At line 12 COLUMNS
Coin0001I At line 35 RHS
Coin0001I At line 40 BOUNDS
Coin0001I At line 45 ENDATA
Coin0002I Problem AIRLIFT_300_LP2 has 8 rows, 12 columns and 28 elements
Coin0001I At line 1 TIME          AIRLIFT_300_LP2
Coin0001I At line 2 PERIODS       IMPLICIT
Coin0001I At line 5 ENDATA

Coin0001I At line 1 STOCH         AIRLIFT_300_LP2
Coin0001I At line 2 SCENARIOS     DISCRETE
Coin0001I At line 901 ENDATA
Read SMPS files: 0.00219 sec.
Reading parameter files: /blues/gpfs/home/choy/Siplib/experiment/solver_parameters/param_LP2_DSP_de.txt
CPX0000  CPXPARAM_Advance                                 0
CPX0000  CPXPARAM_TimeLimit                               3600
CPX0000  CPXPARAM_Threads                                 36
CPX0000  CPXPARAM_MIP_Limits_Nodes                        100000000
CPX0000  Found incumbent of value 869064.057409 after 0.00 sec. (0.16 ticks)
CPX0000  Tried aggregator 1 time.
CPX0000  MIP Presolve eliminated 0 rows and 600 columns.
CPX0000  MIP Presolve modified 1 coefficients.
CPX0000  Reduced MIP has 1802 rows, 1804 columns, and 6604 nonzeros.
CPX0000  Reduced MIP has 0 binaries, 4 generals, 0 SOSs, and 0 indicators.
CPX0000  Presolve time = 0.01 sec. (5.94 ticks)
CPX0000  Tried aggregator 1 time.
CPX0000  Reduced MIP has 1802 rows, 1804 columns, and 6604 nonzeros.
CPX0000  Reduced MIP has 0 binaries, 4 generals, 0 SOSs, and 0 indicators.
CPX0000  Presolve time = 0.01 sec. (6.69 ticks)
CPX0000  MIP emphasis: balance optimality and feasibility.
CPX0000  MIP search method: dynamic search.
CPX0000  Parallel mode: deterministic, using up to 36 threads.
CPX0000  Root relaxation solution time = 0.05 sec. (38.76 ticks)
CPX0000
CPX0000          Nodes                                         Cuts/
CPX0000     Node  Left     Objective  IInf  Best Integer    Best Bound    ItCnt     Gap
CPX0000
CPX0000  *     0+    0                       869064.0574   -55355.6254           106.37%
CPX0000  *     0+    0                       370377.6909   -55355.6254           114.95%
CPX0000        0     0   281742.8735     2   370377.6909   281742.8735     1417   23.93%
CPX0000  *     0+    0                       282135.5035   281742.8735             0.14%
CPX0000        0     0   281745.2734     2   282135.5035      Fract: 2     1420    0.14%
CPX0000        0     0   281746.8588     2   282135.5035       Cuts: 3     1423    0.14%
CPX0000  *     0+    0                       281896.7981   281746.8588             0.05%
CPX0000        0     0        cutoff         281896.7981   281896.7981     1423    0.00%
CPX0000  Elapsed time = 0.24 sec. (74.65 ticks, tree = 0.01 MB
CPX0000
CPX0000  Mixed integer rounding cuts applied:  1
CPX0000  Gomory fractional cuts applied:  1
CPX0000
CPX0000  Root node processing (before b&c):
CPX0000    Real time             =    0.24 sec. (74.83 ticks)
CPX0000  Parallel b&c, 36 threads:
CPX0000    Real time             =    0.00 sec. (0.00 ticks)
CPX0000    Sync time (average)   =    0.00 sec.
CPX0000    Wait time (average)   =    0.00 sec.
CPX0000                            ------------
CPX0000  Total (root+branch&cut) =    0.24 sec. (74.83 ticks)
Status: 3000
Primal Bound: 281897
Dual Bound  : 281897
